Route #1: 27 16 25 6 9 24 51 45 29 39 13 47 20 15 18 19 44 10 11 41 52 23
Route #2: 3 32 21 12 35 55 56 31
Route #3: 34 37 4 50 33 14
Route #4: 43 54 5 46 8 38 22 30 7 48 40
Route #5: 49 36 53 28 2 17
Route #6: 1 26 42
Route #7: 
cost 1301.3620668378185
